139
10000
925
1792
1512
1908
222
949
1369
1023
10
1557
1217
1668
386
1053
1351
383
2126
279
41
1827
1066
305
534
323
1057
276
999
344
1620
64
502
547
2169
267
1692
2431
840
785
2307
1817
807
978
1717
1105
1311
1569
1525
95
985
387
569
1556
463
51
677
428
363
927
565
662
540
2184
1358
2140
1838
54
1935
2082
572
1070
443
2024
875
675
308
301
1007
911
1611
2031
408
328
702
2475
897
2100
1772
1230
2160
487
643
1112
229
43
1479
1850
702
1434
1872
710
1581
875
1031
1498
2271
793
1131
288
589
1341
1052
215
1602
828
37
2094
483
1715
2361
2293
1245
797
418
1397
1726
1226
1340
2255
643
1630
317
963
2181
730
2233
1
592
371
982
